language Essence 1.3

letting blksize_delta be
        function(1 --> 1, 2 --> 1, 3 --> 1, 4 --> 1, 5 --> 1, 6 --> 1, 7 --> 1, 8 --> 1, 9 --> 1, 10 --> 1, 11 --> 1,
                 12 --> 1, 13 --> 1, 14 --> 1, 15 --> 1, 16 --> 1, 17 --> 1, 18 --> 1, 19 --> 1, 20 --> 1, 21 --> 1,
                 22 --> 1, 23 --> 1, 24 --> 1, 25 --> 1, 26 --> 1, 27 --> 1, 28 --> 1, 29 --> 1, 30 --> 1, 31 --> 1,
                 32 --> 1, 33 --> 1, 34 --> 1, 35 --> 1, 36 --> 1, 37 --> 1, 38 --> 1, 39 --> 1, 40 --> 1, 41 --> 1,
                 42 --> 1, 43 --> 1, 44 --> 1, 45 --> 1, 46 --> 1, 47 --> 1, 48 --> 1)
letting maxcars be
        function(1 --> 10, 2 --> 10, 3 --> 10, 4 --> 10, 5 --> 10, 6 --> 10, 7 --> 9, 8 --> 10, 9 --> 10, 10 --> 10,
                 11 --> 10, 12 --> 3, 13 --> 10, 14 --> 10, 15 --> 10, 16 --> 10, 17 --> 10, 18 --> 10, 19 --> 10,
                 20 --> 10, 21 --> 10, 22 --> 10, 23 --> 10, 24 --> 10, 25 --> 10, 26 --> 9, 27 --> 5, 28 --> 10,
                 29 --> 10, 30 --> 10, 31 --> 10, 32 --> 10, 33 --> 10, 34 --> 10, 35 --> 10, 36 --> 10, 37 --> 10,
                 38 --> 10, 39 --> 10, 40 --> 10, 41 --> 10, 42 --> 10, 43 --> 10, 44 --> 3, 45 --> 10, 46 --> 9,
                 47 --> 10, 48 --> 10)
letting n_cars be 153
letting n_classes be 2
letting n_options be 48
letting quantity be function(1 --> 79, 2 --> 74)
letting usage be
        relation((1, 1), (1, 2), (1, 3), (1, 4), (1, 5), (1, 6), (1, 7), (1, 9), (1, 10), (1, 11), (1, 13), (1, 14),
                 (1, 15), (1, 16), (1, 17), (1, 18), (1, 20), (1, 21), (1, 22), (1, 23), (1, 24), (1, 25), (1, 26),
                 (1, 27), (1, 28), (1, 29), (1, 30), (1, 31), (1, 32), (1, 33), (1, 34), (1, 35), (1, 36), (1, 37),
                 (1, 38), (1, 39), (1, 40), (1, 42), (1, 43), (1, 44), (1, 45), (1, 46), (1, 47), (2, 8), (2, 12),
                 (2, 19), (2, 41), (2, 48))
$ Visualisation for usage
$  1  1
$  1  2
$  1  3
$  1  4
$  1  5
$  1  6
$  1  7
$  1  9
$  1 10
$  1 11
$  1 13
$  1 14
$  1 15
$  1 16
$  1 17
$  1 18
$  1 20
$  1 21
$  1 22
$  1 23
$  1 24
$  1 25
$  1 26
$  1 27
$  1 28
$  1 29
$  1 30
$  1 31
$  1 32
$  1 33
$  1 34
$  1 35
$  1 36
$  1 37
$  1 38
$  1 39
$  1 40
$  1 42
$  1 43
$  1 44
$  1 45
$  1 46
$  1 47
$  2  8
$  2 12
$  2 19
$  2 41
$  2 48

